146312.81,59.62,73.93
136472.49,63.91,79.26
140982.84,61.87,76.72
133353.25,65.41,81.11
152192.93,57.31,71.07
152448.99,57.22,70.95
144732.18,60.27,74.74
141355.12,61.71,76.52
149043.24,58.52,72.57
138760.65,62.86,77.95
157788.76,55.28,68.55
137436.26,63.47,78.7
151488.64,57.58,71.4
133980.75,65.1,80.73
153070.41,56.98,70.66
146440.84,59.56,73.86
156510.08,55.73,69.11
147282.05,59.22,73.44
152011.35,57.38,71.16
157142.11,55.51,68.83
